p tw 40 84
0 1
0 34
0 31
0 15
1 4
1 30
1 28
2 3
2 30
2 15
3 23
3 25
3 34
3 35
4 5
4 38
4 35
4 7
4 16
5 18
6 7
6 28
6 21
6 38
7 8
7 37
7 15
7 28
7 11
8 9
8 14
8 17
9 12
9 14
10 11
10 19
10 37
11 31
11 17
11 30
12 13
12 27
12 33
12 38
12 20
12 14
12 31
13 22
13 33
15 16
15 17
15 28
15 39
18 19
18 22
18 23
18 25
18 31
19 24
19 29
19 27
19 26
20 21
20 35
20 31
20 24
21 34
23 25
23 31
23 30
24 30
24 29
25 26
25 35
26 30
27 36
28 36
29 30
29 36
29 34
30 31
31 32
33 39
34 36
